1585904
53 44 84806
44 14 62420
14 10 62052
10 18 28652
18 57 27906
57 33 88918
33 52 101509
52 22 46274
22 31 39447
31 28 65445
28 50 10810
50 36 24707
36 59 8563
59 16 10880
16 63 14689
63 24 26977
24 1 15310
1 61 16056
61 21 26988
21 3 17216
3 42 13084
42 12 4831
12 32 4813
32 56 1427
56 40 3489
40 5 3130
5 60 7979
60 29 6419
29 25 9940
25 30 1249
30 41 5056
41 64 28668
64 67 14572
67 38 15200
38 7 28523
7 43 52950
43 46 69394
46 34 36286
34 55 20835
55 26 61621
26 66 57991
66 11 13370
11 6 47990
6 23 16175
23 49 4353
49 19 8895
19 54 26950
54 13 13536
13 47 9114
47 20 12843
20 4 4440
4 48 7248
48 2 7938
2 65 19463
65 45 16726
45 27 8214
27 17 1445
17 9 5356
9 58 1777
58 15 6904
15 8 6874
8 68 34471
68 35 19070
35 51 8926
51 39 11004
39 62 8740
62 37 30446
37 53 6554
